Route #1: 9 43 29 11 40 4
Route #2: 15 23 41 2 13 12 1 17 3 22 42
Route #3: 16 45 38 6 37 19 25 26 49 31 32 10 47 20 44 18 35
Route #4: 28 34 27 14 24 30 8 21 7 36 50 39 48 33 5 46
Cost 5636941.000000